4 10
252 234 217 245 
0 51 49 70 67 81 86 13 4 75 30 30 99 53 64 60 72 35 66 97 14 3
1 35 29 82 72 8 6 55 49 85 34 65 80 89 49 23 51 23 100 20 64 1
2 64 63 28 34 3 4 67 75 24 74 31 44 12 23 72 46 86 22 43 9 3
3 15 16 53 63 10 17 61 64 5 24 8 26 16 46 46 71 2 7 40 32 4
4 40 37 86 88 40 38 78 81 64 47 89 33 32 44 43 56 85 60 82 87 4
5 60 63 7 9 62 64 9 10 16 97 11 74 99 41 87 29 83 96 20 67 2
6 77 74 1 1 19 27 61 54 95 26 46 36 94 18 79 16 28 79 98 34 4
7 69 73 20 11 60 50 98 88 77 19 82 33 70 88 96 48 49 58 94 81 1
8 24 26 101 93 73 67 29 34 49 13 60 14 70 1 84 61 70 59 29 93 4
9 70 75 34 30 77 76 41 31 1 79 83 26 22 31 84 38 43 28 64 31 4
